# Objective value = 7.4848400000000038e+03
I_0_0 3057
I_0_1 4293
I_0_2 3.7029999999999991e+03
I_0_3 3.7470000000000005e+03
I_0_4 3.6949999999999995e+03
I_0_5 3.2329999999999982e+03
I_0_6 4.4689999999999854e+03
I_1_0 192
I_1_1 96
I_1_2 3.4106051316484809e-13
I_1_3 1.9199999999999997e+02
I_1_4 9.5999999999999986e+01
I_1_5 192
I_1_6 96
I_2_0 166
I_2_1 8.3000000000000114e+01
I_2_2 -8.5265128291212022e-14
I_2_3 1.6599999999999969e+02
I_2_4 82.9999999999997
I_2_5 1.6600000000000324e+02
I_2_6 8.3000000000001450e+01
I_3_0 85
I_3_1 2.8310687127941492e-14
I_3_2 85
I_3_3 1.0250827964242148e-12
I_3_4 8.4999999999998991e+01
I_3_5 85
I_3_6 0
I_4_0 83
I_4_1 0
I_4_2 83
I_4_3 -6.2660987509843835e-13
I_4_4 8.3000000000000554e+01
I_4_5 83
I_4_6 0
I_5_0 108
I_5_1 54
I_5_2 108
I_5_3 54
I_5_4 108
I_5_5 54
I_5_6 0
I_6_0 76
I_6_1 1.0125233984581428e-13
I_6_2 7.5999999999999915e+01
I_6_3 76
I_6_4 0
I_6_5 76
I_6_6 0
I_7_0 78
I_7_1 3.7399250363279180e-13
I_7_2 7.7999999999999645e+01
I_7_3 3.7399250363279180e-13
I_7_4 7.7999999999999645e+01
I_7_5 78
I_7_6 0
I_8_0 54
I_8_1 0
I_8_2 54
I_8_3 0
I_8_4 54
I_8_5 54
I_8_6 0
I_9_0 162
I_9_1 81
I_9_2 6.2527760746888816e-13
I_9_3 162
I_9_4 81
I_9_5 162
I_9_6 8.1000000000011568e+01
I_10_0 82
I_10_1 41
I_10_2 82
I_10_3 41
I_10_4 8.2000000000000014e+01
I_10_5 4.0999999999999986e+01
I_10_6 -3.1086244689504383e-15
I_11_0 65
I_11_1 0
I_11_2 65
I_11_3 3.1166041969399316e-13
I_11_4 64.9999999999997
I_11_5 65
I_11_6 0
I_12_0 36
I_12_1 18
I_12_2 36.0000000000002
I_12_3 1.7999999999999737e+01
I_12_4 3.5999999999999929e+01
I_12_5 18
I_12_6 -1.3322676295501878e-15
I_13_0 35
I_13_1 0
I_13_2 35
I_13_3 0
I_13_4 35
I_13_5 35
I_13_6 0
I_14_0 15
I_14_1 0
I_14_2 15
I_14_3 0
I_14_4 15
I_14_5 1.4999999999999961e+01
I_14_6 2.9559688030644793e-14
I_15_0 72
I_15_1 36
I_15_2 7.5317529990570620e-13
I_15_3 72
I_15_4 7.1999999999999574e+01
I_15_5 3.6000000000000014e+01
I_15_6 1.91491267287347e-12
I_16_0 116
I_16_1 58
I_16_2 116
I_16_3 116
I_16_4 5.8000000000001272e+01
I_16_5 1.1600000000000050e+02
I_16_6 58.0000000000006
I_17_0 19
I_17_1 0
I_17_2 1.9000000000000021e+01
I_17_3 1.8999999999999822e+01
I_17_4 1.4344081478157023e-13
I_17_5 1.8999999999999943e+01
I_17_6 4.7989390239422391e-14
I_18_0 25
I_18_1 1.6098233857064770e-13
I_18_2 2.4999999999999840e+01
I_18_3 2.4999999999999769e+01
I_18_4 2.2724877535296173e-13
I_18_5 25
I_18_6 0
I_19_0 54
I_19_1 27
I_19_2 -9.9475983006414026e-14
I_19_3 5.3999999999998671e+01
I_19_4 26.9999999999986
I_19_5 5.3999999999997058e+01
I_19_6 2.6999999999998618e+01
I_20_0 15
I_20_1 6.6613381477509392e-15
I_20_2 1.4999999999999993e+01
I_20_3 -1.1324274851176597e-13
I_20_4 15.0000000000001
I_20_5 15
I_20_6 0
I_21_0 54
I_21_1 2.6999999999999705e+01
I_21_2 5.4000000000000696e+01
I_21_3 2.7000000000000089e+01
I_21_4 54
I_21_5 2.7000000000000057e+01
I_21_6 5.88418203051333e-14
I_22_0 128
I_22_1 6.4000000000000185e+01
I_22_2 1.2799999999999977e+02
I_22_3 6.3999999999999780e+01
I_22_4 5.3645976549887564e-13
I_22_5 1.2799999999999969e+02
I_22_6 63.9999999999997
I_23_0 56
I_23_1 0
I_23_2 56
I_23_3 2.5615065624151612e-12
I_23_4 5.5999999999997414e+01
I_23_5 56
I_23_6 0
I_24_0 32
I_24_1 0
I_24_2 32
I_24_3 3.1999999999997922e+01
I_24_4 2.0783375020982930e-12
I_24_5 3.1999999999999932e+01
I_24_6 8.08242361927114e-14
I_25_0 13
I_25_1 -9.4535490546832079e-14
I_25_2 1.3000000000000087e+01
I_25_3 13
I_25_4 4.3803849436585551e-13
I_25_5 13
I_25_6 0
q_1_0 0
q_1_1 4.0500935938325711e-13
q_1_2 2.8799999999999966e+02
q_1_3 0
q_1_4 192
q_1_5 0
q_2_0 1.1057821325266559e-13
q_2_1 0
q_2_2 2.4899999999999977e+02
q_2_3 0
q_2_4 1.6600000000000350e+02
q_2_5 -1.7905676941154525e-12
q_3_0 2.8310687127941492e-14
q_3_1 1.6999999999999997e+02
q_3_2 1.0250827964242148e-12
q_3_3 1.6999999999999795e+02
q_3_4 8.5000000000001009e+01
q_3_5 0
q_4_0 0
q_4_1 166
q_4_2 -6.2660987509843835e-13
q_4_3 1.6600000000000119e+02
q_4_4 8.2999999999999446e+01
q_4_5 0
q_5_0 0
q_5_1 108
q_5_2 0
q_5_3 108
q_5_4 0
q_5_5 0
q_6_0 1.0125233984581428e-13
q_6_1 1.5199999999999983e+02
q_6_2 7.6000000000000085e+01
q_6_3 0
q_6_4 152
q_6_5 0
q_7_0 3.7399250363279180e-13
q_7_1 1.5599999999999926e+02
q_7_2 7.2926387151284189e-13
q_7_3 1.5599999999999926e+02
q_7_4 7.8000000000000355e+01
q_7_5 0
q_8_0 0
q_8_1 108
q_8_2 0
q_8_3 108
q_8_4 54
q_8_5 0
q_9_0 0
q_9_1 6.5369931689929217e-13
q_9_2 2.4299999999999937e+02
q_9_3 0
q_9_4 162
q_9_5 1.1510792319313623e-11
q_10_0 0
q_10_1 82
q_10_2 0
q_10_3 8.2000000000000014e+01
q_10_4 -2.0428103653102880e-14
q_10_5 0
q_11_0 0
q_11_1 130
q_11_2 3.1166041969399316e-13
q_11_3 1.2999999999999937e+02
q_11_4 65.0000000000003
q_11_5 0
q_12_0 0
q_12_1 3.6000000000000206e+01
q_12_2 -4.6540549192286562e-13
q_12_3 3.6000000000000192e+01
q_12_4 1.0214051826551440e-14
q_12_5 0
q_13_0 0
q_13_1 70
q_13_2 0
q_13_3 70
q_13_4 35
q_13_5 0
q_14_0 0
q_14_1 30
q_14_2 0
q_14_3 30
q_14_4 1.4999999999999961e+01
q_14_5 6.86395384974503e-14
q_15_0 0
q_15_1 7.6771922152829575e-13
q_15_2 1.0799999999999925e+02
q_15_3 3.5999999999999567e+01
q_15_4 4.3520742565306136e-13
q_15_5 1.91491267287347e-12
q_16_0 0
q_16_1 116
q_16_2 58
q_16_3 1.2647660696529783e-12
q_16_4 1.1599999999999906e+02
q_16_5 0
q_17_0 0
q_17_1 3.8000000000000021e+01
q_17_2 18.9999999999998
q_17_3 3.2107649872159527e-13
q_17_4 37.9999999999998
q_17_5 1.0483280910023041e-13
q_18_0 1.6098233857064770e-13
q_18_1 4.9999999999999680e+01
q_18_2 2.4999999999999929e+01
q_18_3 4.5817516447499429e-13
q_18_4 4.9999999999999773e+01
q_18_5 0
q_19_0 0
q_19_1 2.6645352591003757e-15
q_19_2 8.0999999999998764e+01
q_19_3 0
q_19_4 5.3999999999998373e+01
q_19_5 1.6804335700726369e-12
q_20_0 6.6613381477509392e-15
q_20_1 2.9999999999999986e+01
q_20_2 -1.0613732115416497e-13
q_20_3 3.0000000000000213e+01
q_20_4 14.9999999999999
q_20_5 0
q_21_0 -2.9526381339906038e-13
q_21_1 54.000000000001
q_21_2 -6.1106675275368616e-13
q_21_3 5.3999999999999929e+01
q_21_4 5.88418203051333e-14
q_21_5 0
q_22_0 1.8829382497642655e-13
q_22_1 1.2799999999999933e+02
q_22_2 0
q_22_3 8.1001871876651421e-13
q_22_4 1.9199999999999920e+02
q_22_5 0
q_23_0 0
q_23_1 112
q_23_2 2.5615065624151612e-12
q_23_3 1.1199999999999486e+02
q_23_4 5.6000000000002586e+01
q_23_5 0
q_24_0 0
q_24_1 64
q_24_2 3.1999999999997922e+01
q_24_3 4.1566750041965861e-12
q_24_4 6.3999999999997854e+01
q_24_5 1.4832579608992091e-13
q_25_0 -9.4535490546832079e-14
q_25_1 2.6000000000000181e+01
q_25_2 1.2999999999999913e+01
q_25_3 4.3803849436585551e-13
q_25_4 2.5999999999999559e+01
q_25_5 0
y_0_0 0
y_0_1 1
y_0_2 1
y_0_3 1
y_0_4 1
y_0_5 2.5257573810222311e-15
y_1_0 0
y_1_1 2.7894353493707058e-15
y_1_2 1
y_1_3 0
y_1_4 1
y_1_5 0
y_2_0 1.3322676295501878e-15
y_2_1 0
y_2_2 9.9999999999999889e-01
y_2_3 2.3731017151362721e-15
y_2_4 1.0000000000000044e+00
y_2_5 -7.0499162063697440e-15
y_3_0 3.3306690738754696e-16
y_3_1 1
y_3_2 1.2059797604990763e-14
y_3_3 9.9999999999998812e-01
y_3_4 1
y_3_5 0
y_4_0 0
y_4_1 1
y_4_2 -7.5495165674510645e-15
y_4_3 1.0000000000000067e+00
y_4_4 1
y_4_5 0
y_5_0 0
y_5_1 1
y_5_2 0
y_5_3 1
y_5_4 0
y_5_5 0
y_6_0 1.3322676295501878e-15
y_6_1 9.9999999999999889e-01
y_6_2 1
y_6_3 0
y_6_4 1
y_6_5 0
y_7_0 4.7947756875998948e-15
y_7_1 9.9999999999999545e-01
y_7_2 4.7947756875998948e-15
y_7_3 9.9999999999999545e-01
y_7_4 1
y_7_5 0
y_8_0 0
y_8_1 1
y_8_2 0
y_8_3 1
y_8_4 1
y_8_5 0
y_9_0 0
y_9_1 1.5959455978986625e-15
y_9_2 1
y_9_3 1.7319479184152442e-14
y_9_4 1
y_9_5 1.7430501486614958e-14
y_10_0 0
y_10_1 1
y_10_2 0
y_10_3 9.9999999999999978e-01
y_10_4 -1.6653345369377348e-16
y_10_5 0
y_11_0 0
y_11_1 1
y_11_2 4.7947756875998948e-15
y_11_3 9.9999999999999545e-01
y_11_4 1
y_11_5 0
y_12_0 0
y_12_1 1.0000000000000067e+00
y_12_2 -8.8817841970012523e-15
y_12_3 9.9999999999999889e-01
y_12_4 -1.1102230246251565e-16
y_12_5 0
y_13_0 0
y_13_1 1
y_13_2 0
y_13_3 1
y_13_4 1
y_13_5 0
y_14_0 0
y_14_1 1
y_14_2 0
y_14_3 1
y_14_4 9.9999999999999745e-01
y_14_5 1.9706458687096529e-15
y_15_0 0
y_15_1 1.0696304952872993e-14
y_15_2 1
y_15_3 9.9999999999997136e-01
y_15_4 0
y_15_5 2.3314683517128287e-14
y_16_0 0
y_16_1 1
y_16_2 1
y_16_3 2.6284530108000581e-14
y_16_4 9.9999999999999079e-01
y_16_5 0
y_17_0 0
y_17_1 1.0000000000000011e+00
y_17_2 9.9999999999999067e-01
y_17_3 7.5495165674510645e-15
y_17_4 0.999999999999997
y_17_5 2.5257573810222311e-15
y_18_0 6.4392935428259079e-15
y_18_1 9.9999999999999356e-01
y_18_2 9.9999999999999079e-01
y_18_3 9.0899510141184692e-15
y_18_4 1
y_18_5 0
y_19_0 0
y_19_1 1.2628786905111156e-15
y_19_2 1.0000000000000007e+00
y_19_3 5.0404125317982107e-14
y_19_4 9.9999999999991818e-01
y_19_5 3.2196467714129540e-14
y_20_0 4.4408920985006262e-16
y_20_1 9.9999999999999956e-01
y_20_2 -7.5495165674510645e-15
y_20_3 1.0000000000000067e+00
y_20_4 1
y_20_5 0
y_21_0 -1.0935696792557792e-14
y_21_1 1.0000000000000173e+00
y_21_2 -7.5495165674510645e-15
y_21_3 1
y_21_4 2.1649348980190553e-15
y_21_5 0
y_22_0 2.9420910152566648e-15
y_22_1 9.9999999999999478e-01
y_22_2 0
y_22_3 4.5519144009631418e-15
y_22_4 9.9999999999999512e-01
y_22_5 0
y_23_0 0
y_23_1 1
y_23_2 4.5741188614556449e-14
y_23_3 9.9999999999995381e-01
y_23_4 1
y_23_5 0
y_24_0 0
y_24_1 1
y_24_2 0.999999999999935
y_24_3 6.4948046940571658e-14
y_24_4 9.9999999999999789e-01
y_24_5 2.5257573810222311e-15
y_25_0 -7.2719608112947753e-15
y_25_1 1.0000000000000067e+00
y_25_2 1
y_25_3 3.36952687973735e-14
y_25_4 1
y_25_5 0
x_0_1_0 0
x_0_1_1 0
x_0_1_2 0
x_0_1_3 0
x_0_1_4 0
x_0_1_5 0
x_0_2_0 0
x_0_2_1 0
x_0_2_2 0
x_0_2_3 0
x_0_2_4 0
x_0_2_5 0
x_0_3_0 0
x_0_3_1 0
x_0_3_2 0
x_0_3_3 0
x_0_3_4 0
x_0_3_5 0
x_0_4_0 0
x_0_4_1 0
x_0_4_2 0
x_0_4_3 0
x_0_4_4 0
x_0_4_5 0
x_0_5_0 0
x_0_5_1 0
x_0_5_2 0
x_0_5_3 0
x_0_5_4 0
x_0_5_5 0
x_0_6_0 0
x_0_6_1 0
x_0_6_2 0
x_0_6_3 0
x_0_6_4 0
x_0_6_5 0
x_0_7_0 0
x_0_7_1 0
x_0_7_2 0
x_0_7_3 0
x_0_7_4 0
x_0_7_5 0
x_0_8_0 0
x_0_8_1 0
x_0_8_2 0
x_0_8_3 0
x_0_8_4 0
x_0_8_5 0
x_0_9_0 0
x_0_9_1 0
x_0_9_2 0
x_0_9_3 0
x_0_9_4 0
x_0_9_5 0
x_0_10_0 0
x_0_10_1 0
x_0_10_2 0
x_0_10_3 0
x_0_10_4 0
x_0_10_5 0
x_0_11_0 0
x_0_11_1 0
x_0_11_2 0
x_0_11_3 0
x_0_11_4 0
x_0_11_5 0
x_0_12_0 0
x_0_12_1 0
x_0_12_2 0
x_0_12_3 0
x_0_12_4 0
x_0_12_5 0
x_0_13_0 0
x_0_13_1 0
x_0_13_2 0
x_0_13_3 0
x_0_13_4 0
x_0_13_5 0
x_0_14_0 0
x_0_14_1 0
x_0_14_2 0
x_0_14_3 0
x_0_14_4 0
x_0_14_5 0
x_0_15_0 0
x_0_15_1 0
x_0_15_2 1.4210854715202004e-14
x_0_15_3 9.9999999999991984e-01
x_0_15_4 0
x_0_15_5 0
x_0_16_0 0
x_0_16_1 0
x_0_16_2 0.999999999999969
x_0_16_3 0
x_0_16_4 0
x_0_16_5 0
x_0_17_0 0
x_0_17_1 0
x_0_17_2 0
x_0_17_3 0
x_0_17_4 0
x_0_17_5 0
x_0_18_0 0
x_0_18_1 0
x_0_18_2 0
x_0_18_3 0
x_0_18_4 0
x_0_18_5 0
x_0_19_0 0
x_0_19_1 0
x_0_19_2 0
x_0_19_3 0
x_0_19_4 0
x_0_19_5 0
x_0_20_0 0
x_0_20_1 0
x_0_20_2 0
x_0_20_3 0
x_0_20_4 0
x_0_20_5 0
x_0_21_0 0
x_0_21_1 0
x_0_21_2 0
x_0_21_3 0
x_0_21_4 0
x_0_21_5 0
x_0_22_0 6.5225602696727947e-15
x_0_22_1 0
x_0_22_2 9.3466900885630366e-15
x_0_22_3 4.5519144009631418e-15
x_0_22_4 0
x_0_22_5 0
x_0_23_0 -7.1678774027361669e-15
x_0_23_1 9.9999999999998757e-01
x_0_23_2 6.1284310959308641e-14
x_0_23_3 9.9999999999996048e-01
x_0_23_4 1.0000000000000027e+00
x_0_23_5 0
x_0_24_0 1.0824674490095276e-15
x_0_24_1 1.0000000000000062e+00
x_0_24_2 9.9999999999991451e-01
x_0_24_3 1.20570220474292e-13
x_0_24_4 9.9999999999999722e-01
x_0_24_5 5.0515147620444623e-15
x_0_25_0 0
x_0_25_1 9.9885377746744552e-15
x_0_25_2 2.77416978278211e-14
x_0_25_3 0
x_0_25_4 0
x_0_25_5 0
x_1_2_0 0
x_1_2_1 0
x_1_2_2 0
x_1_2_3 0
x_1_2_4 0
x_1_2_5 0
x_1_3_0 -9.43689570931383e-16
x_1_3_1 -7.3482886442377549e-15
x_1_3_2 0
x_1_3_3 7.1054273576010019e-15
x_1_3_4 1
x_1_3_5 0
x_1_4_0 0
x_1_4_1 0
x_1_4_2 0
x_1_4_3 0
x_1_4_4 0
x_1_4_5 0
x_1_5_0 0
x_1_5_1 0
x_1_5_2 0
x_1_5_3 0
x_1_5_4 0
x_1_5_5 0
x_1_6_0 -7.6466610821057657e-15
x_1_6_1 2.7200464103316335e-15
x_1_6_2 1
x_1_6_3 0
x_1_6_4 1
x_1_6_5 0
x_1_7_0 0
x_1_7_1 0
x_1_7_2 0
x_1_7_3 0
x_1_7_4 0
x_1_7_5 0
x_1_8_0 0
x_1_8_1 0
x_1_8_2 0
x_1_8_3 0
x_1_8_4 0
x_1_8_5 0
x_1_9_0 0
x_1_9_1 0
x_1_9_2 0
x_1_9_3 0
x_1_9_4 0
x_1_9_5 0
x_1_10_0 0
x_1_10_1 0
x_1_10_2 0
x_1_10_3 0
x_1_10_4 0
x_1_10_5 0
x_1_11_0 0
x_1_11_1 0
x_1_11_2 0
x_1_11_3 0
x_1_11_4 0
x_1_11_5 0
x_1_12_0 9.8809849191638932e-15
x_1_12_1 1.0158540675320182e-14
x_1_12_2 -1.3100631690576847e-14
x_1_12_3 0
x_1_12_4 0
x_1_12_5 0
x_1_13_0 0
x_1_13_1 0
x_1_13_2 0
x_1_13_3 0
x_1_13_4 0
x_1_13_5 0
x_1_14_0 0
x_1_14_1 0
x_1_14_2 0
x_1_14_3 0
x_1_14_4 0
x_1_14_5 0
x_1_15_0 0
x_1_15_1 0
x_1_15_2 0
x_1_15_3 0
x_1_15_4 0
x_1_15_5 0
x_1_16_0 0
x_1_16_1 0
x_1_16_2 0
x_1_16_3 0
x_1_16_4 0
x_1_16_5 0
x_1_17_0 0
x_1_17_1 0
x_1_17_2 0
x_1_17_3 -7.1054273576010019e-15
x_1_17_4 0
x_1_17_5 0
x_1_18_0 -7.91033905045424e-16
x_1_18_1 0
x_1_18_2 1.0000000000000129e+00
x_1_18_3 0
x_1_18_4 0
x_1_18_5 0
x_1_19_0 0
x_1_19_1 0
x_1_19_2 0
x_1_19_3 0
x_1_19_4 0
x_1_19_5 0
x_1_20_0 0
x_1_20_1 0
x_1_20_2 0
x_1_20_3 0
x_1_20_4 0
x_1_20_5 0
x_1_21_0 0
x_1_21_1 0
x_1_21_2 0
x_1_21_3 0
x_1_21_4 0
x_1_21_5 0
x_1_22_0 0
x_1_22_1 0
x_1_22_2 0
x_1_22_3 0
x_1_22_4 0
x_1_22_5 0
x_1_23_0 0
x_1_23_1 0
x_1_23_2 0
x_1_23_3 0
x_1_23_4 0
x_1_23_5 0
x_1_24_0 0
x_1_24_1 0
x_1_24_2 0
x_1_24_3 0
x_1_24_4 0
x_1_24_5 0
x_1_25_0 0
x_1_25_1 0
x_1_25_2 0
x_1_25_3 0
x_1_25_4 0
x_1_25_5 0
x_2_3_0 0
x_2_3_1 0
x_2_3_2 0
x_2_3_3 0
x_2_3_4 0
x_2_3_5 0
x_2_4_0 0
x_2_4_1 0
x_2_4_2 0
x_2_4_3 0
x_2_4_4 0
x_2_4_5 0
x_2_5_0 0
x_2_5_1 0
x_2_5_2 0
x_2_5_3 0
x_2_5_4 0
x_2_5_5 0
x_2_6_0 -3.0114799542957371e-15
x_2_6_1 0
x_2_6_2 9.9999999999999889e-01
x_2_6_3 0
x_2_6_4 1.0000000000000127e+00
x_2_6_5 5.1764148523147924e-15
x_2_7_0 0
x_2_7_1 0
x_2_7_2 0
x_2_7_3 0
x_2_7_4 0
x_2_7_5 0
x_2_8_0 0
x_2_8_1 0
x_2_8_2 0
x_2_8_3 0
x_2_8_4 0
x_2_8_5 0
x_2_9_0 0
x_2_9_1 0
x_2_9_2 0
x_2_9_3 0
x_2_9_4 0
x_2_9_5 0
x_2_10_0 9.8532293435482643e-16
x_2_10_1 -7.1054273576010019e-15
x_2_10_2 0
x_2_10_3 -1.2212453270876722e-15
x_2_10_4 0
x_2_10_5 0
x_2_11_0 0
x_2_11_1 0
x_2_11_2 0
x_2_11_3 0
x_2_11_4 0
x_2_11_5 0
x_2_12_0 0
x_2_12_1 0
x_2_12_2 0
x_2_12_3 3.70536934468646e-15
x_2_12_4 0
x_2_12_5 0
x_2_13_0 0
x_2_13_1 0
x_2_13_2 0
x_2_13_3 0
x_2_13_4 0
x_2_13_5 0
x_2_14_0 3.1363800445660672e-15
x_2_14_1 -2.4202861936828413e-14
x_2_14_2 0
x_2_14_3 2.3037127760972e-15
x_2_14_4 9.9999999999999678e-01
x_2_14_5 -1.9373391779708982e-14
x_2_15_0 0
x_2_15_1 0
x_2_15_2 0
x_2_15_3 0
x_2_15_4 0
x_2_15_5 0
x_2_16_0 0
x_2_16_1 0
x_2_16_2 0
x_2_16_3 0
x_2_16_4 0
x_2_16_5 0
x_2_17_0 1.4641066137244252e-15
x_2_17_1 0
x_2_17_2 9.9999999999999889e-01
x_2_17_3 0
x_2_17_4 0
x_2_17_5 0
x_2_18_0 0
x_2_18_1 0
x_2_18_2 0
x_2_18_3 0
x_2_18_4 0
x_2_18_5 0
x_2_19_0 0
x_2_19_1 0
x_2_19_2 0
x_2_19_3 0
x_2_19_4 0
x_2_19_5 0
x_2_20_0 0
x_2_20_1 0
x_2_20_2 0
x_2_20_3 0
x_2_20_4 0
x_2_20_5 0
x_2_21_0 0
x_2_21_1 0
x_2_21_2 0
x_2_21_3 0
x_2_21_4 0
x_2_21_5 0
x_2_22_0 0
x_2_22_1 0
x_2_22_2 0
x_2_22_3 0
x_2_22_4 0
x_2_22_5 0
x_2_23_0 0
x_2_23_1 0
x_2_23_2 0
x_2_23_3 0
x_2_23_4 0
x_2_23_5 0
x_2_24_0 0
x_2_24_1 0
x_2_24_2 0
x_2_24_3 0
x_2_24_4 0
x_2_24_5 0
x_2_25_0 0
x_2_25_1 0
x_2_25_2 0
x_2_25_3 0
x_2_25_4 0
x_2_25_5 0
x_3_4_0 0
x_3_4_1 0
x_3_4_2 0
x_3_4_3 0
x_3_4_4 0
x_3_4_5 0
x_3_5_0 -4.3853809472693683e-15
x_3_5_1 1
x_3_5_2 0
x_3_5_3 9.9999999999996991e-01
x_3_5_4 0
x_3_5_5 0
x_3_6_0 0
x_3_6_1 0
x_3_6_2 0
x_3_6_3 0
x_3_6_4 0
x_3_6_5 0
x_3_7_0 4.7947756875998948e-15
x_3_7_1 0
x_3_7_2 6.1270433171500827e-15
x_3_7_3 0
x_3_7_4 0
x_3_7_5 0
x_3_8_0 0
x_3_8_1 0
x_3_8_2 0
x_3_8_3 8.43769498715119e-15
x_3_8_4 1
x_3_8_5 0
x_3_9_0 0
x_3_9_1 0
x_3_9_2 0
x_3_9_3 0
x_3_9_4 0
x_3_9_5 0
x_3_10_0 0
x_3_10_1 0
x_3_10_2 0
x_3_10_3 0
x_3_10_4 0
x_3_10_5 0
x_3_11_0 0
x_3_11_1 0
x_3_11_2 0
x_3_11_3 0
x_3_11_4 0
x_3_11_5 0
x_3_12_0 -3.83026943495679e-15
x_3_12_1 1.0000000000000029e+00
x_3_12_2 0
x_3_12_3 9.9999999999999234e-01
x_3_12_4 0
x_3_12_5 0
x_3_13_0 0
x_3_13_1 0
x_3_13_2 2.1829760221692140e-14
x_3_13_3 0
x_3_13_4 0
x_3_13_5 0
x_3_14_0 0
x_3_14_1 0
x_3_14_2 0
x_3_14_3 0
x_3_14_4 0
x_3_14_5 0
x_3_15_0 0
x_3_15_1 0
x_3_15_2 0
x_3_15_3 0
x_3_15_4 0
x_3_15_5 0
x_3_16_0 0
x_3_16_1 0
x_3_16_2 0
x_3_16_3 0
x_3_16_4 0
x_3_16_5 0
x_3_17_0 0
x_3_17_1 0
x_3_17_2 0
x_3_17_3 0
x_3_17_4 0
x_3_17_5 0
x_3_18_0 1.1796119636642288e-15
x_3_18_1 0
x_3_18_2 0
x_3_18_3 9.6450625264310474e-16
x_3_18_4 0
x_3_18_5 0
x_3_19_0 0
x_3_19_1 0
x_3_19_2 0
x_3_19_3 0
x_3_19_4 0
x_3_19_5 0
x_3_20_0 0
x_3_20_1 0
x_3_20_2 0
x_3_20_3 0
x_3_20_4 0
x_3_20_5 0
x_3_21_0 0
x_3_21_1 0
x_3_21_2 0
x_3_21_3 0
x_3_21_4 0
x_3_21_5 0
x_3_22_0 0
x_3_22_1 0
x_3_22_2 0
x_3_22_3 0
x_3_22_4 0
x_3_22_5 0
x_3_23_0 0
x_3_23_1 0
x_3_23_2 0
x_3_23_3 0
x_3_23_4 0
x_3_23_5 0
x_3_24_0 0
x_3_24_1 0
x_3_24_2 0
x_3_24_3 0
x_3_24_4 0
x_3_24_5 0
x_3_25_0 0
x_3_25_1 0
x_3_25_2 -3.2474023470285829e-15
x_3_25_3 0
x_3_25_4 0
x_3_25_5 0
x_4_5_0 0
x_4_5_1 0
x_4_5_2 0
x_4_5_3 0
x_4_5_4 0
x_4_5_5 0
x_4_6_0 0
x_4_6_1 0
x_4_6_2 0
x_4_6_3 0
x_4_6_4 0
x_4_6_5 0
x_4_7_0 0
x_4_7_1 0
x_4_7_2 0
x_4_7_3 0
x_4_7_4 0
x_4_7_5 0
x_4_8_0 0
x_4_8_1 0
x_4_8_2 0
x_4_8_3 0
x_4_8_4 0
x_4_8_5 0
x_4_9_0 0
x_4_9_1 0
x_4_9_2 0
x_4_9_3 0
x_4_9_4 0
x_4_9_5 0
x_4_10_0 0
x_4_10_1 0
x_4_10_2 0
x_4_10_3 0
x_4_10_4 0
x_4_10_5 0
x_4_11_0 0
x_4_11_1 -2.0539125955565396e-14
x_4_11_2 0
x_4_11_3 1.0234868508263162e-14
x_4_11_4 9.9999999999999778e-01
x_4_11_5 0
x_4_12_0 0
x_4_12_1 0
x_4_12_2 0
x_4_12_3 0
x_4_12_4 0
x_4_12_5 0
x_4_13_0 -8.8817841970012523e-16
x_4_13_1 1.0000000000000189e+00
x_4_13_2 -7.5495165674510645e-15
x_4_13_3 9.9999999999999545e-01
x_4_13_4 2.1649348980190553e-15
x_4_13_5 0
x_4_14_0 0
x_4_14_1 0
x_4_14_2 0
x_4_14_3 0
x_4_14_4 0
x_4_14_5 0
x_4_15_0 0
x_4_15_1 0
x_4_15_2 0
x_4_15_3 0
x_4_15_4 0
x_4_15_5 0
x_4_16_0 0
x_4_16_1 0
x_4_16_2 0
x_4_16_3 0
x_4_16_4 0
x_4_16_5 0
x_4_17_0 0
x_4_17_1 0
x_4_17_2 0
x_4_17_3 0
x_4_17_4 0
x_4_17_5 0
x_4_18_0 0
x_4_18_1 0
x_4_18_2 0
x_4_18_3 0
x_4_18_4 0
x_4_18_5 0
x_4_19_0 0
x_4_19_1 0
x_4_19_2 0
x_4_19_3 0
x_4_19_4 0
x_4_19_5 0
x_4_20_0 8.8817841970012523e-16
x_4_20_1 9.9999999999999956e-01
x_4_20_2 -7.5495165674510645e-15
x_4_20_3 1.00000000000001
x_4_20_4 1
x_4_20_5 0
x_4_21_0 0
x_4_21_1 0
x_4_21_2 0
x_4_21_3 0
x_4_21_4 0
x_4_21_5 0
x_4_22_0 0
x_4_22_1 0
x_4_22_2 0
x_4_22_3 0
x_4_22_4 0
x_4_22_5 0
x_4_23_0 0
x_4_23_1 0
x_4_23_2 0
x_4_23_3 0
x_4_23_4 0
x_4_23_5 0
x_4_24_0 0
x_4_24_1 0
x_4_24_2 0
x_4_24_3 0
x_4_24_4 0
x_4_24_5 0
x_4_25_0 0
x_4_25_1 0
x_4_25_2 0
x_4_25_3 0
x_4_25_4 0
x_4_25_5 0
x_5_6_0 0
x_5_6_1 0
x_5_6_2 0
x_5_6_3 0
x_5_6_4 0
x_5_6_5 0
x_5_7_0 0
x_5_7_1 0
x_5_7_2 0
x_5_7_3 0
x_5_7_4 0
x_5_7_5 0
x_5_8_0 0
x_5_8_1 1.0000000000000009e+00
x_5_8_2 0
x_5_8_3 1
x_5_8_4 0
x_5_8_5 0
x_5_9_0 0
x_5_9_1 0
x_5_9_2 0
x_5_9_3 0
x_5_9_4 0
x_5_9_5 0
x_5_10_0 0
x_5_10_1 0
x_5_10_2 0
x_5_10_3 0
x_5_10_4 0
x_5_10_5 0
x_5_11_0 0
x_5_11_1 0
x_5_11_2 0
x_5_11_3 0
x_5_11_4 0
x_5_11_5 0
x_5_12_0 4.3853809472693683e-15
x_5_12_1 7.7715611723760958e-16
x_5_12_2 0
x_5_12_3 2.9337643425719762e-14
x_5_12_4 0
x_5_12_5 0
x_5_13_0 0
x_5_13_1 0
x_5_13_2 0
x_5_13_3 0
x_5_13_4 0
x_5_13_5 0
x_5_14_0 0
x_5_14_1 0
x_5_14_2 0
x_5_14_3 0
x_5_14_4 0
x_5_14_5 0
x_5_15_0 0
x_5_15_1 0
x_5_15_2 0
x_5_15_3 0
x_5_15_4 0
x_5_15_5 0
x_5_16_0 0
x_5_16_1 0
x_5_16_2 0
x_5_16_3 0
x_5_16_4 0
x_5_16_5 0
x_5_17_0 0
x_5_17_1 0
x_5_17_2 0
x_5_17_3 0
x_5_17_4 0
x_5_17_5 0
x_5_18_0 0
x_5_18_1 0
x_5_18_2 0
x_5_18_3 0
x_5_18_4 0
x_5_18_5 0
x_5_19_0 0
x_5_19_1 0
x_5_19_2 0
x_5_19_3 0
x_5_19_4 0
x_5_19_5 0
x_5_20_0 0
x_5_20_1 0
x_5_20_2 0
x_5_20_3 0
x_5_20_4 0
x_5_20_5 0
x_5_21_0 0
x_5_21_1 0
x_5_21_2 0
x_5_21_3 0
x_5_21_4 0
x_5_21_5 0
x_5_22_0 0
x_5_22_1 0
x_5_22_2 0
x_5_22_3 0
x_5_22_4 0
x_5_22_5 0
x_5_23_0 0
x_5_23_1 0
x_5_23_2 0
x_5_23_3 0
x_5_23_4 0
x_5_23_5 0
x_5_24_0 0
x_5_24_1 0
x_5_24_2 0
x_5_24_3 0
x_5_24_4 0
x_5_24_5 0
x_5_25_0 0
x_5_25_1 0
x_5_25_2 0
x_5_25_3 0
x_5_25_4 0
x_5_25_5 0
x_6_7_0 0
x_6_7_1 0
x_6_7_2 0
x_6_7_3 0
x_6_7_4 0
x_6_7_5 0
x_6_8_0 0
x_6_8_1 0
x_6_8_2 0
x_6_8_3 0
x_6_8_4 0
x_6_8_5 0
x_6_9_0 0
x_6_9_1 0
x_6_9_2 1.2753686995381486e-14
x_6_9_3 0
x_6_9_4 0
x_6_9_5 0
x_6_10_0 0
x_6_10_1 0
x_6_10_2 0
x_6_10_3 0
x_6_10_4 0
x_6_10_5 0
x_6_11_0 0
x_6_11_1 0
x_6_11_2 0
x_6_11_3 0
x_6_11_4 0
x_6_11_5 0
x_6_12_0 0
x_6_12_1 0
x_6_12_2 0
x_6_12_3 0
x_6_12_4 -2.2204460492503131e-16
x_6_12_5 -5.1764148523147924e-15
x_6_13_0 0
x_6_13_1 0
x_6_13_2 0
x_6_13_3 0
x_6_13_4 0
x_6_13_5 0
x_6_14_0 0
x_6_14_1 0
x_6_14_2 0
x_6_14_3 0
x_6_14_4 0
x_6_14_5 0
x_6_15_0 0
x_6_15_1 0
x_6_15_2 0
x_6_15_3 0
x_6_15_4 0
x_6_15_5 0
x_6_16_0 0
x_6_16_1 0
x_6_16_2 0
x_6_16_3 0
x_6_16_4 0
x_6_16_5 0
x_6_17_0 0
x_6_17_1 1.0000000000000155e+00
x_6_17_2 -4.6698755973295647e-15
x_6_17_3 0
x_6_17_4 0
x_6_17_5 0
x_6_18_0 1.3045120539345589e-14
x_6_18_1 1.0000000000000080e+00
x_6_18_2 0
x_6_18_3 0
x_6_18_4 -1.1532441668293814e-14
x_6_18_5 0
x_6_19_0 0
x_6_19_1 0
x_6_19_2 0
x_6_19_3 0
x_6_19_4 0
x_6_19_5 0
x_6_20_0 0
x_6_20_1 0
x_6_20_2 0
x_6_20_3 0
x_6_20_4 0
x_6_20_5 0
x_6_21_0 0
x_6_21_1 0
x_6_21_2 0
x_6_21_3 0
x_6_21_4 0
x_6_21_5 0
x_6_22_0 0
x_6_22_1 0
x_6_22_2 0
x_6_22_3 0
x_6_22_4 0
x_6_22_5 0
x_6_23_0 0
x_6_23_1 0
x_6_23_2 0
x_6_23_3 0
x_6_23_4 0
x_6_23_5 0
x_6_24_0 0
x_6_24_1 0
x_6_24_2 0
x_6_24_3 0
x_6_24_4 0
x_6_24_5 0
x_6_25_0 0
x_6_25_1 0
x_6_25_2 0
x_6_25_3 0
x_6_25_4 0
x_6_25_5 0
x_7_8_0 0
x_7_8_1 9.9999999999999867e-01
x_7_8_2 0
x_7_8_3 9.9999999999999534e-01
x_7_8_4 1
x_7_8_5 0
x_7_9_0 0
x_7_9_1 0
x_7_9_2 0
x_7_9_3 0
x_7_9_4 0
x_7_9_5 0
x_7_10_0 0
x_7_10_1 0
x_7_10_2 0
x_7_10_3 0
x_7_10_4 0
x_7_10_5 0
x_7_11_0 4.3576253716537394e-15
x_7_11_1 0
x_7_11_2 0
x_7_11_3 0
x_7_11_4 0
x_7_11_5 0
x_7_12_0 0
x_7_12_1 0
x_7_12_2 0
x_7_12_3 0
x_7_12_4 0
x_7_12_5 0
x_7_13_0 8.8817841970012523e-16
x_7_13_1 1
x_7_13_2 -9.0275009689833041e-15
x_7_13_3 1.0000000000000038e+00
x_7_13_4 1
x_7_13_5 0
x_7_14_0 0
x_7_14_1 0
x_7_14_2 0
x_7_14_3 0
x_7_14_4 0
x_7_14_5 0
x_7_15_0 0
x_7_15_1 0
x_7_15_2 0
x_7_15_3 0
x_7_15_4 0
x_7_15_5 0
x_7_16_0 0
x_7_16_1 0
x_7_16_2 0
x_7_16_3 0
x_7_16_4 0
x_7_16_5 0
x_7_17_0 0
x_7_17_1 0
x_7_17_2 0
x_7_17_3 0
x_7_17_4 0
x_7_17_5 0
x_7_18_0 0
x_7_18_1 0
x_7_18_2 0
x_7_18_3 2.4980018054066022e-16
x_7_18_4 0
x_7_18_5 0
x_7_19_0 0
x_7_19_1 0
x_7_19_2 0
x_7_19_3 0
x_7_19_4 0
x_7_19_5 0
x_7_20_0 0
x_7_20_1 0
x_7_20_2 0
x_7_20_3 0
x_7_20_4 0
x_7_20_5 0
x_7_21_0 0
x_7_21_1 -5.8980598183211441e-15
x_7_21_2 1.1823875212257917e-14
x_7_21_3 9.1593399531575415e-16
x_7_21_4 0
x_7_21_5 0
x_7_22_0 0
x_7_22_1 0
x_7_22_2 0
x_7_22_3 0
x_7_22_4 0
x_7_22_5 0
x_7_23_0 0
x_7_23_1 0
x_7_23_2 0
x_7_23_3 0
x_7_23_4 0
x_7_23_5 0
x_7_24_0 0
x_7_24_1 0
x_7_24_2 0
x_7_24_3 0
x_7_24_4 0
x_7_24_5 0
x_7_25_0 0
x_7_25_1 -3.9968028886505635e-15
x_7_25_2 0
x_7_25_3 0
x_7_25_4 0
x_7_25_5 0
x_8_9_0 0
x_8_9_1 0
x_8_9_2 0
x_8_9_3 0
x_8_9_4 0
x_8_9_5 0
x_8_10_0 0
x_8_10_1 0
x_8_10_2 0
x_8_10_3 0
x_8_10_4 0
x_8_10_5 0
x_8_11_0 0
x_8_11_1 0
x_8_11_2 0
x_8_11_3 0
x_8_11_4 0
x_8_11_5 0
x_8_12_0 0
x_8_12_1 0
x_8_12_2 0
x_8_12_3 0
x_8_12_4 0
x_8_12_5 0
x_8_13_0 0
x_8_13_1 0
x_8_13_2 0
x_8_13_3 -3.1363800445660672e-15
x_8_13_4 0
x_8_13_5 0
x_8_14_0 0
x_8_14_1 0
x_8_14_2 0
x_8_14_3 0
x_8_14_4 0
x_8_14_5 0
x_8_15_0 0
x_8_15_1 0
x_8_15_2 0
x_8_15_3 0
x_8_15_4 0
x_8_15_5 0
x_8_16_0 0
x_8_16_1 0
x_8_16_2 0
x_8_16_3 0
x_8_16_4 0
x_8_16_5 0
x_8_17_0 0
x_8_17_1 0
x_8_17_2 0
x_8_17_3 0
x_8_17_4 0
x_8_17_5 0
x_8_18_0 0
x_8_18_1 0
x_8_18_2 0
x_8_18_3 0
x_8_18_4 0
x_8_18_5 0
x_8_19_0 0
x_8_19_1 0
x_8_19_2 0
x_8_19_3 0
x_8_19_4 0
x_8_19_5 0
x_8_20_0 0
x_8_20_1 0
x_8_20_2 0
x_8_20_3 0
x_8_20_4 0
x_8_20_5 0
x_8_21_0 0
x_8_21_1 0
x_8_21_2 0
x_8_21_3 0
x_8_21_4 0
x_8_21_5 0
x_8_22_0 0
x_8_22_1 0
x_8_22_2 0
x_8_22_3 0
x_8_22_4 0
x_8_22_5 0
x_8_23_0 0
x_8_23_1 0
x_8_23_2 0
x_8_23_3 0
x_8_23_4 0
x_8_23_5 0
x_8_24_0 0
x_8_24_1 0
x_8_24_2 0
x_8_24_3 0
x_8_24_4 0
x_8_24_5 0
x_8_25_0 0
x_8_25_1 0
x_8_25_2 0
x_8_25_3 0
x_8_25_4 0
x_8_25_5 0
x_9_10_0 0
x_9_10_1 0
x_9_10_2 0
x_9_10_3 0
x_9_10_4 0
x_9_10_5 0
x_9_11_0 0
x_9_11_1 0
x_9_11_2 0
x_9_11_3 0
x_9_11_4 0
x_9_11_5 0
x_9_12_0 0
x_9_12_1 0
x_9_12_2 0
x_9_12_3 0
x_9_12_4 0
x_9_12_5 0
x_9_13_0 0
x_9_13_1 0
x_9_13_2 0
x_9_13_3 0
x_9_13_4 0
x_9_13_5 0
x_9_14_0 0
x_9_14_1 0
x_9_14_2 0
x_9_14_3 0
x_9_14_4 0
x_9_14_5 0
x_9_15_0 0
x_9_15_1 0
x_9_15_2 4.73232564246473e-15
x_9_15_3 0
x_9_15_4 0
x_9_15_5 0
x_9_16_0 0
x_9_16_1 0
x_9_16_2 0
x_9_16_3 0
x_9_16_4 0
x_9_16_5 0
x_9_17_0 0
x_9_17_1 0
x_9_17_2 9.9999999999999922e-01
x_9_17_3 0
x_9_17_4 8.9261931179862586e-14
x_9_17_5 0
x_9_18_0 0
x_9_18_1 -1.3267165144270621e-14
x_9_18_2 0
x_9_18_3 -1.0713652187632761e-14
x_9_18_4 1
x_9_18_5 0
x_9_19_0 0
x_9_19_1 0
x_9_19_2 9.9999999999998934e-01
x_9_19_3 0
x_9_19_4 9.9999999999991818e-01
x_9_19_5 3.4861002973229915e-14
x_9_20_0 0
x_9_20_1 0
x_9_20_2 0
x_9_20_3 0
x_9_20_4 0
x_9_20_5 0
x_9_21_0 0
x_9_21_1 0
x_9_21_2 0
x_9_21_3 0
x_9_21_4 0
x_9_21_5 0
x_9_22_0 0
x_9_22_1 0
x_9_22_2 0
x_9_22_3 0
x_9_22_4 0
x_9_22_5 0
x_9_23_0 0
x_9_23_1 0
x_9_23_2 0
x_9_23_3 0
x_9_23_4 0
x_9_23_5 0
x_9_24_0 0
x_9_24_1 0
x_9_24_2 0
x_9_24_3 0
x_9_24_4 0
x_9_24_5 0
x_9_25_0 0
x_9_25_1 1.7930101847696278e-14
x_9_25_2 0
x_9_25_3 4.3687276018999910e-14
x_9_25_4 -4.2188474935755949e-15
x_9_25_5 0
x_10_11_0 0
x_10_11_1 0
x_10_11_2 0
x_10_11_3 0
x_10_11_4 0
x_10_11_5 0
x_10_12_0 0
x_10_12_1 1
x_10_12_2 0
x_10_12_3 1.0000000000000029e+00
x_10_12_4 0
x_10_12_5 5.1764148523147924e-15
x_10_13_0 0
x_10_13_1 0
x_10_13_2 0
x_10_13_3 0
x_10_13_4 0
x_10_13_5 0
x_10_14_0 -1.2628786905111156e-15
x_10_14_1 1.0000000000000151e+00
x_10_14_2 0
x_10_14_3 9.9999999999999523e-01
x_10_14_4 -3.3306690738754696e-16
x_10_14_5 -5.1764148523147924e-15
x_10_15_0 0
x_10_15_1 0
x_10_15_2 0
x_10_15_3 0
x_10_15_4 0
x_10_15_5 0
x_10_16_0 0
x_10_16_1 0
x_10_16_2 0
x_10_16_3 0
x_10_16_4 0
x_10_16_5 0
x_10_17_0 0
x_10_17_1 0
x_10_17_2 0
x_10_17_3 0
x_10_17_4 0
x_10_17_5 0
x_10_18_0 0
x_10_18_1 0
x_10_18_2 0
x_10_18_3 0
x_10_18_4 0
x_10_18_5 0
x_10_19_0 0
x_10_19_1 0
x_10_19_2 0
x_10_19_3 0
x_10_19_4 0
x_10_19_5 0
x_10_20_0 0
x_10_20_1 0
x_10_20_2 0
x_10_20_3 0
x_10_20_4 0
x_10_20_5 0
x_10_21_0 0
x_10_21_1 0
x_10_21_2 0
x_10_21_3 0
x_10_21_4 0
x_10_21_5 0
x_10_22_0 0
x_10_22_1 0
x_10_22_2 0
x_10_22_3 0
x_10_22_4 0
x_10_22_5 0
x_10_23_0 0
x_10_23_1 0
x_10_23_2 0
x_10_23_3 0
x_10_23_4 0
x_10_23_5 0
x_10_24_0 0
x_10_24_1 0
x_10_24_2 0
x_10_24_3 0
x_10_24_4 0
x_10_24_5 0
x_10_25_0 0
x_10_25_1 0
x_10_25_2 0
x_10_25_3 0
x_10_25_4 0
x_10_25_5 0
x_11_12_0 0
x_11_12_1 0
x_11_12_2 0
x_11_12_3 0
x_11_12_4 0
x_11_12_5 0
x_11_13_0 0
x_11_13_1 -2.0539125955565396e-14
x_11_13_2 1.1345091532888318e-14
x_11_13_3 0
x_11_13_4 9.9999999999999778e-01
x_11_13_5 0
x_11_14_0 0
x_11_14_1 0
x_11_14_2 0
x_11_14_3 0
x_11_14_4 0
x_11_14_5 0
x_11_15_0 0
x_11_15_1 0
x_11_15_2 0
x_11_15_3 0
x_11_15_4 0
x_11_15_5 0
x_11_16_0 0
x_11_16_1 0
x_11_16_2 0
x_11_16_3 0
x_11_16_4 0
x_11_16_5 0
x_11_17_0 0
x_11_17_1 0
x_11_17_2 0
x_11_17_3 0
x_11_17_4 0
x_11_17_5 0
x_11_18_0 0
x_11_18_1 0
x_11_18_2 0
x_11_18_3 0
x_11_18_4 0
x_11_18_5 0
x_11_19_0 0
x_11_19_1 0
x_11_19_2 0
x_11_19_3 0
x_11_19_4 0
x_11_19_5 0
x_11_20_0 0
x_11_20_1 1.0000000000000207e+00
x_11_20_2 4.7947756875998948e-15
x_11_20_3 9.9999999999999367e-01
x_11_20_4 2.1649348980190553e-15
x_11_20_5 0
x_11_21_0 -4.3576253716537394e-15
x_11_21_1 1.0000000000000207e+00
x_11_21_2 -8.3266726846886741e-15
x_11_21_3 9.9999999999998812e-01
x_11_21_4 2.1649348980190553e-15
x_11_21_5 0
x_11_22_0 0
x_11_22_1 0
x_11_22_2 0
x_11_22_3 0
x_11_22_4 0
x_11_22_5 0
x_11_23_0 0
x_11_23_1 0
x_11_23_2 0
x_11_23_3 0
x_11_23_4 0
x_11_23_5 0
x_11_24_0 0
x_11_24_1 0
x_11_24_2 0
x_11_24_3 0
x_11_24_4 0
x_11_24_5 0
x_11_25_0 0
x_11_25_1 0
x_11_25_2 0
x_11_25_3 0
x_11_25_4 0
x_11_25_5 0
x_12_13_0 0
x_12_13_1 0
x_12_13_2 0
x_12_13_3 0
x_12_13_4 0
x_12_13_5 0
x_12_14_0 0
x_12_14_1 0
x_12_14_2 0
x_12_14_3 0
x_12_14_4 0
x_12_14_5 0
x_12_15_0 0
x_12_15_1 0
x_12_15_2 0
x_12_15_3 0
x_12_15_4 0
x_12_15_5 0
x_12_16_0 0
x_12_16_1 0
x_12_16_2 0
x_12_16_3 0
x_12_16_4 0
x_12_16_5 0
x_12_17_0 0
x_12_17_1 0
x_12_17_2 0
x_12_17_3 0
x_12_17_4 0
x_12_17_5 0
x_12_18_0 0
x_12_18_1 0
x_12_18_2 0
x_12_18_3 0
x_12_18_4 0
x_12_18_5 0
x_12_19_0 0
x_12_19_1 0
x_12_19_2 0
x_12_19_3 0
x_12_19_4 0
x_12_19_5 0
x_12_20_0 0
x_12_20_1 0
x_12_20_2 0
x_12_20_3 0
x_12_20_4 0
x_12_20_5 0
x_12_21_0 0
x_12_21_1 0
x_12_21_2 0
x_12_21_3 0
x_12_21_4 0
x_12_21_5 0
x_12_22_0 0
x_12_22_1 0
x_12_22_2 0
x_12_22_3 0
x_12_22_4 0
x_12_22_5 0
x_12_23_0 0
x_12_23_1 0
x_12_23_2 0
x_12_23_3 0
x_12_23_4 0
x_12_23_5 0
x_12_24_0 0
x_12_24_1 0
x_12_24_2 0
x_12_24_3 0
x_12_24_4 0
x_12_24_5 0
x_12_25_0 0
x_12_25_1 0
x_12_25_2 0
x_12_25_3 0
x_12_25_4 0
x_12_25_5 0
x_13_14_0 0
x_13_14_1 0
x_13_14_2 0
x_13_14_3 0
x_13_14_4 0
x_13_14_5 0
x_13_15_0 0
x_13_15_1 0
x_13_15_2 0
x_13_15_3 0
x_13_15_4 0
x_13_15_5 0
x_13_16_0 0
x_13_16_1 0
x_13_16_2 0
x_13_16_3 0
x_13_16_4 0
x_13_16_5 0
x_13_17_0 0
x_13_17_1 0
x_13_17_2 0
x_13_17_3 0
x_13_17_4 0
x_13_17_5 0
x_13_18_0 0
x_13_18_1 0
x_13_18_2 0
x_13_18_3 0
x_13_18_4 0
x_13_18_5 0
x_13_19_0 0
x_13_19_1 0
x_13_19_2 0
x_13_19_3 0
x_13_19_4 0
x_13_19_5 0
x_13_20_0 0
x_13_20_1 0
x_13_20_2 0
x_13_20_3 0
x_13_20_4 0
x_13_20_5 0
x_13_21_0 0
x_13_21_1 0
x_13_21_2 -1.7819079545233762e-14
x_13_21_3 4.8017145815038020e-15
x_13_21_4 0
x_13_21_5 0
x_13_22_0 0
x_13_22_1 0
x_13_22_2 0
x_13_22_3 0
x_13_22_4 0
x_13_22_5 0
x_13_23_0 0
x_13_23_1 0
x_13_23_2 0
x_13_23_3 0
x_13_23_4 0
x_13_23_5 0
x_13_24_0 0
x_13_24_1 0
x_13_24_2 0
x_13_24_3 0
x_13_24_4 0
x_13_24_5 0
x_13_25_0 0
x_13_25_1 0
x_13_25_2 0
x_13_25_3 0
x_13_25_4 0
x_13_25_5 0
x_14_15_0 0
x_14_15_1 1.0696304952872993e-14
x_14_15_2 0
x_14_15_3 9.9999999999997313e-01
x_14_15_4 0
x_14_15_5 2.7533531010703882e-14
x_14_16_0 0
x_14_16_1 0
x_14_16_2 0
x_14_16_3 0
x_14_16_4 0
x_14_16_5 0
x_14_17_0 -1.4641066137244252e-15
x_14_17_1 1.0000000000000011e+00
x_14_17_2 0
x_14_17_3 2.7589042161935140e-14
x_14_17_4 9.9999999999999745e-01
x_14_17_5 2.5257573810222311e-15
x_14_18_0 0
x_14_18_1 0
x_14_18_2 0
x_14_18_3 0
x_14_18_4 0
x_14_18_5 0
x_14_19_0 0
x_14_19_1 0
x_14_19_2 0
x_14_19_3 0
x_14_19_4 4.4408920985006262e-16
x_14_19_5 0
x_14_20_0 0
x_14_20_1 0
x_14_20_2 0
x_14_20_3 0
x_14_20_4 0
x_14_20_5 0
x_14_21_0 0
x_14_21_1 0
x_14_21_2 0
x_14_21_3 0
x_14_21_4 0
x_14_21_5 0
x_14_22_0 0
x_14_22_1 0
x_14_22_2 0
x_14_22_3 0
x_14_22_4 0
x_14_22_5 0
x_14_23_0 0
x_14_23_1 0
x_14_23_2 0
x_14_23_3 0
x_14_23_4 0
x_14_23_5 0
x_14_24_0 0
x_14_24_1 0
x_14_24_2 0
x_14_24_3 0
x_14_24_4 0
x_14_24_5 0
x_14_25_0 0
x_14_25_1 0
x_14_25_2 0
x_14_25_3 0
x_14_25_4 0
x_14_25_5 0
x_15_16_0 0
x_15_16_1 0
x_15_16_2 0
x_15_16_3 0
x_15_16_4 0
x_15_16_5 0
x_15_17_0 0
x_15_17_1 0
x_15_17_2 -1.3850032232198828e-14
x_15_17_3 0
x_15_17_4 0
x_15_17_5 0
x_15_18_0 0
x_15_18_1 0
x_15_18_2 0
x_15_18_3 0
x_15_18_4 0
x_15_18_5 0
x_15_19_0 0
x_15_19_1 1.0694570229397016e-14
x_15_19_2 1.0000000000000113e+00
x_15_19_3 5.0404125317982107e-14
x_15_19_4 0
x_15_19_5 2.9198865547641617e-14
x_15_20_0 0
x_15_20_1 0
x_15_20_2 0
x_15_20_3 0
x_15_20_4 0
x_15_20_5 0
x_15_21_0 0
x_15_21_1 0
x_15_21_2 0
x_15_21_3 0
x_15_21_4 0
x_15_21_5 0
x_15_22_0 0
x_15_22_1 0
x_15_22_2 0
x_15_22_3 0
x_15_22_4 0
x_15_22_5 0
x_15_23_0 0
x_15_23_1 0
x_15_23_2 0
x_15_23_3 0
x_15_23_4 0
x_15_23_5 0
x_15_24_0 0
x_15_24_1 0
x_15_24_2 9.9999999999995293e-01
x_15_24_3 0
x_15_24_4 0
x_15_24_5 0
x_15_25_0 0
x_15_25_1 0
x_15_25_2 5.4956039718945249e-15
x_15_25_3 0
x_15_25_4 0
x_15_25_5 0
x_16_17_0 0
x_16_17_1 0
x_16_17_2 0
x_16_17_3 0
x_16_17_4 0
x_16_17_5 0
x_16_18_0 5.0237591864288333e-15
x_16_18_1 0
x_16_18_2 0
x_16_18_3 0
x_16_18_4 0
x_16_18_5 0
x_16_19_0 0
x_16_19_1 0
x_16_19_2 0
x_16_19_3 0
x_16_19_4 0
x_16_19_5 0
x_16_20_0 0
x_16_20_1 0
x_16_20_2 0
x_16_20_3 0
x_16_20_4 0
x_16_20_5 0
x_16_21_0 -5.0237591864288333e-15
x_16_21_1 0
x_16_21_2 0
x_16_21_3 5.2569060216001162e-14
x_16_21_4 0
x_16_21_5 0
x_16_22_0 0
x_16_22_1 0
x_16_22_2 0
x_16_22_3 0
x_16_22_4 0
x_16_22_5 0
x_16_23_0 0
x_16_23_1 1
x_16_23_2 3.0975222387041867e-14
x_16_23_3 0
x_16_23_4 9.9999999999999123e-01
x_16_23_5 0
x_16_24_0 0
x_16_24_1 0
x_16_24_2 0
x_16_24_3 0
x_16_24_4 0
x_16_24_5 0
x_16_25_0 0
x_16_25_1 1
x_16_25_2 1
x_16_25_3 0
x_16_25_4 9.9999999999999079e-01
x_16_25_5 0
x_17_18_0 0
x_17_18_1 0
x_17_18_2 0
x_17_18_3 0
x_17_18_4 0
x_17_18_5 0
x_17_19_0 0
x_17_19_1 -1.3100631690576847e-14
x_17_19_2 0
x_17_19_3 -6.9388939039072284e-16
x_17_19_4 9.9999999999991729e-01
x_17_19_5 2.5257573810222311e-15
x_17_20_0 0
x_17_20_1 0
x_17_20_2 0
x_17_20_3 0
x_17_20_4 0
x_17_20_5 0
x_17_21_0 0
x_17_21_1 0
x_17_21_2 0
x_17_21_3 0
x_17_21_4 0
x_17_21_5 0
x_17_22_0 0
x_17_22_1 0
x_17_22_2 0
x_17_22_3 0
x_17_22_4 0
x_17_22_5 0
x_17_23_0 0
x_17_23_1 0
x_17_23_2 0
x_17_23_3 0
x_17_23_4 0
x_17_23_5 0
x_17_24_0 0
x_17_24_1 0
x_17_24_2 0
x_17_24_3 0
x_17_24_4 0
x_17_24_5 0
x_17_25_0 0
x_17_25_1 0
x_17_25_2 0
x_17_25_3 0
x_17_25_4 0
x_17_25_5 0
x_18_19_0 0
x_18_19_1 0
x_18_19_2 0
x_18_19_3 2.7491897647280439e-14
x_18_19_4 0
x_18_19_5 0
x_18_20_0 0
x_18_20_1 0
x_18_20_2 0
x_18_20_3 0
x_18_20_4 0
x_18_20_5 0
x_18_21_0 0
x_18_21_1 0
x_18_21_2 0
x_18_21_3 0
x_18_21_4 0
x_18_21_5 0
x_18_22_0 0
x_18_22_1 0
x_18_22_2 0
x_18_22_3 0
x_18_22_4 0
x_18_22_5 0
x_18_23_0 0
x_18_23_1 0
x_18_23_2 0
x_18_23_3 0
x_18_23_4 0
x_18_23_5 0
x_18_24_0 0
x_18_24_1 0
x_18_24_2 0
x_18_24_3 0
x_18_24_4 0
x_18_24_5 0
x_18_25_0 -7.2719608112947753e-15
x_18_25_1 9.9999999999999356e-01
x_18_25_2 9.9999999999997224e-01
x_18_25_3 0
x_18_25_4 1.0000000000000113e+00
x_18_25_5 0
x_19_20_0 0
x_19_20_1 0
x_19_20_2 0
x_19_20_3 0
x_19_20_4 0
x_19_20_5 0
x_19_21_0 0
x_19_21_1 0
x_19_21_2 0
x_19_21_3 0
x_19_21_4 0
x_19_21_5 0
x_19_22_0 0
x_19_22_1 0
x_19_22_2 0
x_19_22_3 0
x_19_22_4 0
x_19_22_5 0
x_19_23_0 0
x_19_23_1 0
x_19_23_2 0
x_19_23_3 0
x_19_23_4 0
x_19_23_5 0
x_19_24_0 0
x_19_24_1 0
x_19_24_2 0
x_19_24_3 0
x_19_24_4 0
x_19_24_5 0
x_19_25_0 0
x_19_25_1 0
x_19_25_2 0
x_19_25_3 2.6312285683616210e-14
x_19_25_4 0
x_19_25_5 0
x_20_21_0 -6.7237881928861043e-15
x_20_21_1 0
x_20_21_2 0
x_20_21_3 1.0234868508263162e-14
x_20_21_4 0
x_20_21_5 0
x_20_22_0 0
x_20_22_1 -1.6042722705833512e-14
x_20_22_2 -1.0234868508263162e-14
x_20_22_3 0
x_20_22_4 9.9999999999999378e-01
x_20_22_5 0
x_20_23_0 7.1678774027361669e-15
x_20_23_1 0
x_20_23_2 0
x_20_23_3 0
x_20_23_4 4.6629367034256575e-15
x_20_23_5 0
x_20_24_0 0
x_20_24_1 0
x_20_24_2 0
x_20_24_3 0
x_20_24_4 0
x_20_24_5 0
x_20_25_0 0
x_20_25_1 0
x_20_25_2 0
x_20_25_3 0
x_20_25_4 0
x_20_25_5 0
x_21_22_0 0
x_21_22_1 1.0000000000000093e+00
x_21_22_2 0
x_21_22_3 0
x_21_22_4 0
x_21_22_5 0
x_21_23_0 0
x_21_23_1 8.6319840164605921e-15
x_21_23_2 0
x_21_23_3 9.9999999999994671e-01
x_21_23_4 0
x_21_23_5 0
x_21_24_0 0
x_21_24_1 0
x_21_24_2 0
x_21_24_3 0
x_21_24_4 0
x_21_24_5 0
x_21_25_0 -7.2719608112947753e-15
x_21_25_1 0
x_21_25_2 0
x_21_25_3 0
x_21_25_4 2.1649348980190553e-15
x_21_25_5 0
x_22_23_0 0
x_22_23_1 0
x_22_23_2 0
x_22_23_3 0
x_22_23_4 -2.2204460492503131e-16
x_22_23_5 0
x_22_24_0 -1.0824674490095276e-15
x_22_24_1 9.9999999999999445e-01
x_22_24_2 -6.6613381477509392e-16
x_22_24_3 4.5519144009631418e-15
x_22_24_4 0.999999999999998
x_22_24_5 0
x_22_25_0 0
x_22_25_1 0
x_22_25_2 0
x_22_25_3 0
x_22_25_4 0
x_22_25_5 0
x_23_24_0 0
x_23_24_1 0
x_23_24_2 0
x_23_24_3 0
x_23_24_4 0
x_23_24_5 0
x_23_25_0 0
x_23_25_1 1.4467593789646571e-15
x_23_25_2 0
x_23_25_3 0
x_23_25_4 0
x_23_25_5 0
x_24_25_0 0
x_24_25_1 0
x_24_25_2 0
x_24_25_3 0
x_24_25_4 0
x_24_25_5 0
